p idrup
i 5 4 -7 0
i 6 3 0
i 1 7 0
i 2 3 0
q 0
s SATISFIABLE
m -1 -2 3 4 -5 -6 7 0
q 0
l -3 -7 0
l -7 0
l 3 0
s SATISFIABLE
m 1 -2 3 -4 -5 -6 -7 0
q 0
s SATISFIABLE
m -1 -2 -3 -4 -5 -6 -7 0
q 0
s SATISFIABLE
m -1 -2 -3 -4 -5 -6 -7 0
